<?xml version = "1.0" standalone="yes"?>
<!-- This file has been generated by DOcplex version 2.23.222  -->
<CPLEXSolution version="1.0">
 <header
   problemName="CVRP"
   objectiveValue="15462.9"
  />
 <variables>
  <variable name="x_0_3" index="2" value="1.00000"/>
  <variable name="x_0_4" index="3" value="1.00000"/>
  <variable name="x_0_7" index="6" value="1.00000"/>
  <variable name="x_0_8" index="7" value="1.00000"/>
  <variable name="x_0_13" index="12" value="1.00000"/>
  <variable name="x_0_15" index="14" value="1.00000"/>
  <variable name="x_0_16" index="15" value="1.00000"/>
  <variable name="x_0_17" index="16" value="1.00000"/>
  <variable name="x_0_18" index="17" value="1.00000"/>
  <variable name="x_0_19" index="18" value="1.00000"/>
  <variable name="x_0_23" index="22" value="1.00000"/>
  <variable name="x_0_24" index="23" value="1.00000"/>
  <variable name="x_0_25" index="24" value="1.00000"/>
  <variable name="x_0_26" index="25" value="1.00000"/>
  <variable name="x_0_27" index="26" value="1.00000"/>
  <variable name="x_0_28" index="27" value="1.00000"/>
  <variable name="x_1_22" index="51" value="1.00000"/>
  <variable name="x_2_0" index="60" value="1.00000"/>
  <variable name="x_3_10" index="99" value="1.00000"/>
  <variable name="x_4_6" index="125" value="1.00000"/>
  <variable name="x_5_9" index="158" value="1.00000"/>
  <variable name="x_6_0" index="180" value="1.00000"/>
  <variable name="x_7_0" index="210" value="1.00000"/>
  <variable name="x_8_0" index="240" value="1.00000"/>
  <variable name="x_9_0" index="270" value="1.00000"/>
  <variable name="x_10_21" index="320" value="1.00000"/>
  <variable name="x_11_0" index="330" value="1.00000"/>
  <variable name="x_12_0" index="360" value="1.00000"/>
  <variable name="x_13_30" index="419" value="1.00000"/>
  <variable name="x_14_0" index="420" value="1.00000"/>
  <variable name="x_15_2" index="452" value="1.00000"/>
  <variable name="x_16_20" index="499" value="1.00000"/>
  <variable name="x_17_0" index="510" value="1.00000"/>
  <variable name="x_18_29" index="568" value="1.00000"/>
  <variable name="x_19_12" index="582" value="1.00000"/>
  <variable name="x_20_0" index="600" value="1.00000"/>
  <variable name="x_21_0" index="630" value="1.00000"/>
  <variable name="x_22_0" index="660" value="1.00000"/>
  <variable name="x_23_5" index="695" value="1.00000"/>
  <variable name="x_24_0" index="720" value="1.00000"/>
  <variable name="x_25_0" index="750" value="1.00000"/>
  <variable name="x_26_1" index="781" value="1.00000"/>
  <variable name="x_27_14" index="824" value="1.00000"/>
  <variable name="x_28_0" index="840" value="1.00000"/>
  <variable name="x_29_11" index="881" value="1.00000"/>
  <variable name="x_30_0" index="900" value="1.00000"/>
  <variable name="u_1" index="930" value="27.00000"/>
  <variable name="u_2" index="931" value="54.00000"/>
  <variable name="u_3" index="932" value="12.00000"/>
  <variable name="u_4" index="933" value="45.00000"/>
  <variable name="u_5" index="934" value="32.00000"/>
  <variable name="u_6" index="935" value="53.00000"/>
  <variable name="u_7" index="936" value="51.00000"/>
  <variable name="u_8" index="937" value="47.00000"/>
  <variable name="u_9" index="938" value="54.00000"/>
  <variable name="u_10" index="939" value="19.00000"/>
  <variable name="u_11" index="940" value="54.00000"/>
  <variable name="u_12" index="941" value="54.00000"/>
  <variable name="u_13" index="942" value="37.00000"/>
  <variable name="u_14" index="943" value="54.00000"/>
  <variable name="u_15" index="944" value="20.00000"/>
  <variable name="u_16" index="945" value="26.00000"/>
  <variable name="u_17" index="946" value="23.00000"/>
  <variable name="u_18" index="947" value="21.00000"/>
  <variable name="u_19" index="948" value="15.00000"/>
  <variable name="u_20" index="949" value="54.00000"/>
  <variable name="u_21" index="950" value="44.00000"/>
  <variable name="u_22" index="951" value="39.00000"/>
  <variable name="u_23" index="952" value="29.00000"/>
  <variable name="u_24" index="953" value="42.00000"/>
  <variable name="u_25" index="954" value="39.00000"/>
  <variable name="u_26" index="955" value="6.00000"/>
  <variable name="u_27" index="956" value="29.00000"/>
  <variable name="u_28" index="957" value="54.00000"/>
  <variable name="u_29" index="958" value="42.00000"/>
  <variable name="u_30" index="959" value="43.00000"/>
 </variables>
</CPLEXSolution>
